sat
(
  (define-fun VM1Type () Int
    341)
  (define-fun VM5Type () Int
    0)
  (define-fun C2_VM2 () Int
    1)
  (define-fun PriceProv2 () Int
    210)
  (define-fun C1_VM3 () Int
    0)
  (define-fun PriceProv6 () Int
    420)
  (define-fun StorageProv5 () Int
    6001)
  (define-fun C2_VM3 () Int
    0)
  (define-fun C5_VM1 () Int
    0)
  (define-fun MemProv6 () Int
    15000)
  (define-fun PriceProv4 () Int
    210)
  (define-fun C3_VM3 () Int
    0)
  (define-fun C1_VM6 () Int
    0)
  (define-fun C3_VM1 () Int
    0)
  (define-fun StorageProv3 () Int
    2000)
  (define-fun StorageProv4 () Int
    2000)
  (define-fun C5_VM4 () Int
    1)
  (define-fun C3_VM6 () Int
    1)
  (define-fun StorageProv2 () Int
    2000)
  (define-fun PriceProv1 () Int
    210)
  (define-fun PriceProv3 () Int
    532)
  (define-fun ProcProv5 () Int
    33)
  (define-fun C5_VM6 () Int
    1)
  (define-fun C1_VM4 () Int
    0)
  (define-fun StorageProv6 () Int
    2000)
  (define-fun C1_VM2 () Int
    0)
  (define-fun C4_VM3 () Int
    1)
  (define-fun ProcProv6 () Int
    8)
  (define-fun PriceProv5 () Int
    0)
  (define-fun StorageProv1 () Int
    2000)
  (define-fun C4_VM5 () Int
    0)
  (define-fun ProcProv3 () Int
    8)
  (define-fun VM2Type () Int
    341)
  (define-fun C5_VM3 () Int
    0)
  (define-fun ProcProv2 () Int
    4)
  (define-fun VM4Type () Int
    341)
  (define-fun C2_VM6 () Int
    0)
  (define-fun C3_VM5 () Int
    0)
  (define-fun MemProv2 () Int
    7500)
  (define-fun ProcProv4 () Int
    4)
  (define-fun MemProv5 () Int
    122001)
  (define-fun C3_VM2 () Int
    0)
  (define-fun C5_VM2 () Int
    1)
  (define-fun C5_VM5 () Int
    0)
  (define-fun C2_VM1 () Int
    0)
  (define-fun MemProv1 () Int
    7500)
  (define-fun C3_VM4 () Int
    0)
  (define-fun MemProv4 () Int
    7500)
  (define-fun C1_VM5 () Int
    0)
  (define-fun VM3Type () Int
    252)
  (define-fun MemProv3 () Int
    30000)
  (define-fun VM6Type () Int
    278)
  (define-fun C4_VM2 () Int
    0)
  (define-fun C4_VM4 () Int
    0)
  (define-fun C4_VM1 () Int
    0)
  (define-fun C2_VM4 () Int
    1)
  (define-fun C4_VM6 () Int
    0)
  (define-fun ProcProv1 () Int
    4)
  (define-fun C2_VM5 () Int
    0)
  (define-fun C1_VM1 () Int
    1)
)
(objectives
 ( 14)
 ((+ 0 PriceProv1 PriceProv2 PriceProv3 PriceProv4 PriceProv5 PriceProv6) 1582)
)
(:added-eqs                   160832
 :arith-eq-adapter            32586
 :arith-bound-propagations-lp 121906
 :arith-conflicts             38
 :arith-diseq                 661416
 :arith-fixed-eqs             2163
 :arith-lower                 917732
 :arith-make-feasible         31120
 :arith-max-columns           566
 :arith-max-rows              20
 :arith-upper                 417667
 :binary-propagations         1320399
 :bv-bit2core                 12182
 :bv-dynamic-diseqs           597011
 :bv->core-eq                 527
 :conflicts                   2281
 :decisions                   167939
 :del-clause                  761570
 :final-checks                73
 :max-memory                  115.42
 :memory                      111.52
 :minimized-lits              57243
 :mk-bool-var                 75613
 :mk-clause                   762042
 :mk-clause-binary            14595
 :num-allocs                  2755907824
 :num-checks                  74
 :pb-conflicts                113
 :pb-predicates               66
 :pb-propagations             9439
 :pb-resolves                 99
 :propagations                3432156
 :restarts                    15
 :rlimit-count                20972286
 :solve-eqs-elim-vars         1
 :solve-eqs-steps             10
 :time                        1.82
 :total-time                  1.83)
